RT is False
Default write of storage_offers_DA.csv just to have a file (but constraint should be inactive)
Reading model...
...model read.
creating competitive generators file...
...competitive generators recorded.
Loading data...
.. day-ahead data with real-time VRE data read.
Compiling instance...
...instance created.
Creating Offer Mitigation (model will solve as dispatch if TRUE)...
NOTE: storage offers will not be mitigated
...storage offer mitigation file created
Converting model to MPEC...
...converted
NOTE: initial MIP solve with only storage competitive to get feasible solution
Solving...

Welcome to IBM(R) ILOG(R) CPLEX(R) Interactive Optimizer 12.9.0.0
  with Simplex, Mixed Integer & Barrier Optimizers
5725-A06 5725-A29 5724-Y48 5724-Y49 5724-Y54 5724-Y55 5655-Y21
Copyright IBM Corp. 1988, 2019.  All Rights Reserved.

Type 'help' for a list of available commands.
Type 'help' followed by a command name for more
information on commands.

CPLEX> Logfile 'cplex.log' closed.
Logfile 'C:\Users\llavin\Desktop\test919\logs\tmp1y5wq78g.cplex.log' open.
CPLEX> New value for parallel optimization mode: -1
CPLEX> New value for mixed integer optimality gap tolerance: 0.01
CPLEX> New value for integrality tolerance: 1e-09
CPLEX> New value for feasibility tolerance: 0.1
CPLEX> New value for deterministic time limit in ticks: 100000
CPLEX> Problem 'C:\Users\llavin\Desktop\test919\logs\tmpxnl3l2ew.pyomo.lp' read.
Read time = 0.22 sec. (13.86 ticks)
CPLEX> Problem name         : C:\Users\llavin\Desktop\test919\logs\tmpxnl3l2ew.pyomo.lp
Objective sense      : Maximize
Variables            :   53321  [Nneg: 1,  Box: 21806,  Free: 4416,
                                 Binary: 27098]
Objective nonzeros   :    8980
Linear constraints   :  122164  [Less: 40983,  Greater: 58612,  Equal: 22569]
  Nonzeros           :  288505
  RHS nonzeros       :   66982

Variables            : Min LB: -5000.000        Max UB: 1000000.       
Objective nonzeros   : Min   : 0.008333333      Max   : 813.5333       
Linear constraints   :
  Nonzeros           : Min   : 0.008333333      Max   : 1000000.       
  RHS nonzeros       : Min   : 0.008333333      Max   : 1000000.       
CPLEX> CPXPARAM_Parallel                                -1
CPXPARAM_Simplex_Tolerances_Feasibility          0.10000000000000001
CPXPARAM_DetTimeLimit                            100000
CPXPARAM_MIP_Tolerances_MIPGap                   0.01
CPXPARAM_MIP_Tolerances_Integrality              1.0000000000000001e-09
Tried aggregator 3 times.
MIP Presolve eliminated 88085 rows and 18941 columns.
MIP Presolve added 3371 rows and 0 columns.
MIP Presolve modified 23443 coefficients.
Aggregator did 12853 substitutions.
Reduced MIP has 24597 rows, 20971 columns, and 68911 nonzeros.
Reduced MIP has 8291 binaries, 0 generals, 0 SOSs, and 0 indicators.
Presolve time = 0.30 sec. (172.95 ticks)
Probing fixed 438 vars, tightened 2939 bounds.
Probing time = 1.27 sec. (917.59 ticks)
Tried aggregator 2 times.
MIP Presolve eliminated 984 rows and 887 columns.
MIP Presolve modified 2190 coefficients.
Aggregator did 59 substitutions.
Reduced MIP has 23554 rows, 20025 columns, and 65864 nonzeros.
Reduced MIP has 7849 binaries, 0 generals, 0 SOSs, and 0 indicators.
Presolve time = 0.11 sec. (66.64 ticks)
Probing time = 0.03 sec. (15.62 ticks)
Clique table members: 6278.
MIP emphasis: balance optimality and feasibility.
MIP search method: dynamic search.
Parallel mode: opportunistic, using up to 32 threads.
Root relaxation solution time = 0.38 sec. (483.30 ticks)

        Nodes                                         Cuts/
   Node  Left     Objective  IInf  Best Integer    Best Bound    ItCnt     Gap

      0     0      591.2392   870                    591.2392     6198         
*     0+    0                            0.0000      591.2392              --- 
      0     2      591.2392     1        0.0000      591.2392     6198     --- 
Elapsed time = 5.97 sec. (4022.86 ticks, tree = 0.02 MB, solutions = 2)
*     2     2      integral     0      591.2392      591.2392     6198    0.00%

Root node processing (before b&c):
  Real time             =    5.14 sec. (3980.48 ticks)
Parallel b&c, 32 threads:
  Real time             =    1.06 sec. (203.21 ticks)
  Sync time (average)   =    0.14 sec.
  Wait time (average)   =    0.00 sec.
                          ------------
Total (root+branch&cut) =    6.20 sec. (4183.69 ticks)

Solution pool: 2 solutions saved.

MIP - Integer optimal solution:  Objective =  5.9123916471e+02
Solution time =    6.22 sec.  Iterations = 6202  Nodes = 5
Deterministic time = 4183.84 ticks  (672.75 ticks/sec)

CPLEX> Incumbent solution written to file 'C:\Users\llavin\Desktop\test919\logs\tmpgh8hema3.cplex.sol'.
CPLEX> NOTE: no warmstart specified for MIP iteration, default behavior is true
NOTE: resolving with all competitive generators using storage-only solution to warmstart
Solving...

Welcome to IBM(R) ILOG(R) CPLEX(R) Interactive Optimizer 12.9.0.0
  with Simplex, Mixed Integer & Barrier Optimizers
5725-A06 5725-A29 5724-Y48 5724-Y49 5724-Y54 5724-Y55 5655-Y21
Copyright IBM Corp. 1988, 2019.  All Rights Reserved.

Type 'help' for a list of available commands.
Type 'help' followed by a command name for more
information on commands.

CPLEX> Logfile 'cplex.log' closed.
Logfile 'C:\Users\llavin\Desktop\test919\logs\tmpzmdkz6k0.cplex.log' open.
CPLEX> New value for parallel optimization mode: -1
CPLEX> New value for mixed integer optimality gap tolerance: 0.01
CPLEX> New value for integrality tolerance: 1e-09
CPLEX> New value for feasibility tolerance: 0.1
CPLEX> New value for deterministic time limit in ticks: 100000
CPLEX> Problem 'C:\Users\llavin\Desktop\test919\logs\tmp85kgt1b5.pyomo.lp' read.
Read time = 0.25 sec. (13.88 ticks)
CPLEX> MIP start file 'C:\Users\llavin\Desktop\test919\logs\tmp_gh33p7e.cplex.mst' read.
CPLEX> Problem name         : C:\Users\llavin\Desktop\test919\logs\tmp85kgt1b5.pyomo.lp
Objective sense      : Maximize
Variables            :   54041  [Nneg: 1,  Box: 22526,  Free: 4416,
                                 Binary: 27098]
Objective nonzeros   :    9700
Linear constraints   :  122164  [Less: 40983,  Greater: 58612,  Equal: 22569]
  Nonzeros           :  288505
  RHS nonzeros       :   66982

Variables            : Min LB: -5000.000        Max UB: 1000000.       
Objective nonzeros   : Min   : 0.008333333      Max   : 813.5333       
Linear constraints   :
  Nonzeros           : Min   : 0.008333333      Max   : 1000000.       
  RHS nonzeros       : Min   : 0.008333333      Max   : 1000000.       
CPLEX> CPXPARAM_Parallel                                -1
CPXPARAM_Simplex_Tolerances_Feasibility          0.10000000000000001
CPXPARAM_DetTimeLimit                            100000
CPXPARAM_MIP_Tolerances_MIPGap                   0.01
CPXPARAM_MIP_Tolerances_Integrality              1.0000000000000001e-09
Warning:  No solution found from 1 MIP starts.
Retaining values of one MIP start for possible repair.
Tried aggregator 3 times.
MIP Presolve eliminated 88085 rows and 19661 columns.
MIP Presolve added 3371 rows and 0 columns.
MIP Presolve modified 23443 coefficients.
Aggregator did 12853 substitutions.
Reduced MIP has 24597 rows, 20971 columns, and 68911 nonzeros.
Reduced MIP has 8291 binaries, 0 generals, 0 SOSs, and 0 indicators.
Presolve time = 0.30 sec. (173.30 ticks)
Probing fixed 438 vars, tightened 2939 bounds.
Probing time = 1.27 sec. (917.59 ticks)
Tried aggregator 2 times.
MIP Presolve eliminated 984 rows and 887 columns.
MIP Presolve modified 2190 coefficients.
Aggregator did 59 substitutions.
Reduced MIP has 23554 rows, 20025 columns, and 65864 nonzeros.
Reduced MIP has 7849 binaries, 0 generals, 0 SOSs, and 0 indicators.
Presolve time = 0.11 sec. (66.64 ticks)
Probing time = 0.03 sec. (15.62 ticks)
Clique table members: 6278.
MIP emphasis: balance optimality and feasibility.
MIP search method: dynamic search.
Parallel mode: opportunistic, using up to 32 threads.
Root relaxation solution time = 0.38 sec. (483.30 ticks)

        Nodes                                         Cuts/
   Node  Left     Objective  IInf  Best Integer    Best Bound    ItCnt     Gap

      0     0      591.2392   870                    591.2392     6198         
*     0+    0                            0.0000      591.2392              --- 
Repair heuristic found nothing.
      0     1        cutoff              0.0000      591.2392     6200     --- 
Elapsed time = 6.30 sec. (4154.25 ticks, tree = 0.02 MB, solutions = 2)
*     3     2      integral     0      591.2392      591.2392     6198    0.00%

Root node processing (before b&c):
  Real time             =    5.37 sec. (4120.26 ticks)
Parallel b&c, 32 threads:
  Real time             =    1.06 sec. (202.39 ticks)
  Sync time (average)   =    0.15 sec.
  Wait time (average)   =    0.00 sec.
                          ------------
Total (root+branch&cut) =    6.44 sec. (4322.65 ticks)

Solution pool: 2 solutions saved.

MIP - Integer optimal solution:  Objective =  5.9123916471e+02
Solution time =    6.47 sec.  Iterations = 6202  Nodes = 5
Deterministic time = 4322.80 ticks  (668.23 ticks/sec)

CPLEX> Incumbent solution written to file 'C:\Users\llavin\Desktop\test919\logs\tmp7tvw3h1j.cplex.sol'.
CPLEX> Exporting results... 
